words_hard_train/2012.qaiger
aag 65 10 0 1 55
2
4
8
18
22
26
46
58
64
116
130
6 2 5
10 6 9
12 7 8
14 11 13
16 5 9
20 16 19
24 20 23
28 25 26
30 24 27
32 29 31
34 15 32
36 3 19
38 17 18
40 39 21
42 40 2
44 37 43
48 31 46
50 30 47
52 49 51
54 44 52
56 35 55
60 59 8
62 61 17
66 65 4
68 58 9
70 66 69
72 62 71
74 41 3
76 72 75
78 3 4
80 79 7
82 21 22
84 83 25
86 81 84
88 77 87
90 88 43
92 80 85
94 14 33
96 93 95
98 91 96
100 56 99
102 45 53
104 101 103
106 104 50
108 3 22
110 85 2
112 109 111
114 107 113
118 114 117
120 112 116
122 51 121
124 123 107
126 104 121
128 125 127
130 119 129
i0 2 y2[7]
i1 1 x1[0]
i2 1 x1[1]
i3 1 x1[2]
i4 1 x1[3]
i5 1 x1[4]
i6 1 x1[5]
i7 2 y2[6]
i8 2 y2[5]
i9 1 x1[6]
o0 bv[0]
c
simplified
  >=
    add
      >> 4
        2 y2
      << 4
        1 x1
    << 1
      1 x1
