words_hard_train/2012.qaiger.qdimacs
p cnf 65 166
a 2 4 9 11 13 23 58 0
e 1 3 5 6 7 8 10 12 14 15 16 17 18 19 20 21 22 24 25 26 27 28 29 30 31 32 33 34 35 36 37 38 39 40 41 42 43 44 45 46 47 48 49 50 51 52 53 54 55 56 57 59 60 61 62 63 64 65 0
-1 2 3 0
1 -3 0
-2 -3 0
-3 4 5 0
3 -5 0
-4 -5 0
3 -4 6 0
-3 -6 0
4 -6 0
5 6 7 0
-5 -7 0
-6 -7 0
2 4 8 0
-2 -8 0
-4 -8 0
-8 9 10 0
8 -10 0
-9 -10 0
-10 11 12 0
10 -12 0
-11 -12 0
12 -13 14 0
-12 -14 0
13 -14 0
-12 13 15 0
12 -15 0
-13 -15 0
14 15 16 0
-14 -16 0
-15 -16 0
7 -16 17 0
-7 -17 0
16 -17 0
1 9 18 0
-1 -18 0
-9 -18 0
8 -9 19 0
-8 -19 0
9 -19 0
19 10 20 0
-19 -20 0
-10 -20 0
-20 -1 21 0
20 -21 0
1 -21 0
18 21 22 0
-18 -22 0
-21 -22 0
15 -23 24 0
-15 -24 0
23 -24 0
-15 23 25 0
15 -25 0
-23 -25 0
24 25 26 0
-24 -26 0
-25 -26 0
-22 -26 27 0
22 -27 0
26 -27 0
17 27 28 0
-17 -28 0
-27 -28 0
29 -4 30 0
-29 -30 0
4 -30 0
30 8 31 0
-30 -31 0
-8 -31 0
32 -2 33 0
-32 -33 0
2 -33 0
-29 4 34 0
29 -34 0
-4 -34 0
-33 34 35 0
33 -35 0
-34 -35 0
-31 35 36 0
31 -36 0
-35 -36 0
20 1 37 0
-20 -37 0
-1 -37 0
-36 37 38 0
36 -38 0
-37 -38 0
1 -2 39 0
-1 -39 0
2 -39 0
39 3 40 0
-39 -40 0
-3 -40 0
10 -11 41 0
-10 -41 0
11 -41 0
41 12 42 0
-41 -42 0
-12 -42 0
40 -42 43 0
-40 -43 0
42 -43 0
38 43 44 0
-38 -44 0
-43 -44 0
-44 21 45 0
44 -45 0
-21 -45 0
-40 42 46 0
40 -46 0
-42 -46 0
-7 16 47 0
7 -47 0
-16 -47 0
46 47 48 0
-46 -48 0
-47 -48 0
45 -48 49 0
-45 -49 0
48 -49 0
-28 49 50 0
28 -50 0
-49 -50 0
22 26 51 0
-22 -51 0
-26 -51 0
50 51 52 0
-50 -52 0
-51 -52 0
-52 -25 53 0
52 -53 0
25 -53 0
1 -11 54 0
-1 -54 0
11 -54 0
42 -1 55 0
-42 -55 0
1 -55 0
54 55 56 0
-54 -56 0
-55 -56 0
53 56 57 0
-53 -57 0
-56 -57 0
-57 58 59 0
57 -59 0
-58 -59 0
-56 -58 60 0
56 -60 0
58 -60 0
25 60 61 0
-25 -61 0
-60 -61 0
61 53 62 0
-61 -62 0
-53 -62 0
-52 60 63 0
52 -63 0
-60 -63 0
62 63 64 0
-62 -64 0
-63 -64 0
59 64 65 0
-59 -65 0
-64 -65 0
65 0
